12
0 33 44 4 21 49 10 58 66 59 32 23 
33 0 35 36 15 16 27 29 35 36 20 31 
44 35 0 44 28 42 34 32 42 23 53 58 
4 36 44 0 23 52 11 60 69 61 36 26 
21 15 28 23 0 30 13 37 46 39 27 30 
49 16 42 52 30 0 43 21 23 33 28 44 
10 27 34 11 13 43 0 50 59 50 33 28 
58 29 32 60 37 21 50 0 10 15 47 60 
66 35 42 69 46 23 59 10 0 22 51 66 
59 36 23 61 39 33 50 15 22 0 56 66 
32 20 53 36 27 28 33 47 51 56 0 17 
23 31 58 26 30 44 28 60 66 66 17 0 
